Problem:    ej2
Rows:       81
Columns:    64
Non-zeros:  352
Status:     OPTIMAL
Objective:  resultado = -1514.084643 (MAXimum)

   No.   Row name   St   Activity     Lower bound   Upper bound    Marginal
------ ------------ -- ------------- ------------- ------------- -------------
     1 resultado    B       -1514.08                             
     2 inicial[S1]  NS         55000         55000             =       0.24533
     3 inicial[S2]  NS         55000         55000             =      0.225203
     4 inicial[S3]  NS         55000         55000             =        0.1855
     5 inicial[S4]  NS         55000         55000             =      0.509297
     6 inicial[S5]  NS         55000         55000             =      0.206999
     7 inicial[S6]  NS         55000         55000             =      0.502302
     8 inicial[S7]  NS         55000         55000             =      0.441105
     9 inicial[S8]  NS         55000         55000             =      0.628758
    10 capital[S1,2]
                    NS             0            -0             =      0.178434
    11 capital[S1,3]
                    NS             0            -0             =        0.1425
    12 capital[S2,2]
                    NS             0            -0             =      0.182709
    13 capital[S2,3]
                    NS             0            -0             =       0.14625
    14 capital[S3,2]
                    NS             0            -0             =      0.150947
    15 capital[S3,3]
                    NS             0            -0             =        0.1425
    16 capital[S4,2]
                    NS             0            -0             =      0.409984
    17 capital[S4,3]
                    NS             0            -0             =      0.386875
    18 capital[S5,2]
                    NS             0            -0             =      0.198286
    19 capital[S5,3]
                    NS             0            -0             =        0.1425
    20 capital[S6,2]
                    NS             0            -0             =      0.476873
    21 capital[S6,3]
                    NS             0            -0             =      0.386875
    22 capital[S7,2]
                    NS             0            -0             =       0.41914
    23 capital[S7,3]
                    NS             0            -0             =      0.401755
    24 capital[S8,2]
                    NS             0            -0             =      0.596171
    25 capital[S8,3]
                    NS             0            -0             =      0.568766
    26 ganancia[S1] NS         80000         80000             =        -0.125
    27 ganancia[S2] NS         80000         80000             =        -0.125
    28 ganancia[S3] NS         80000         80000             =        -0.125
    29 ganancia[S4] NS         80000         80000             =     -0.345424
    30 ganancia[S5] NS         80000         80000             =        -0.125
    31 ganancia[S6] NS         80000         80000             =     -0.345424
    32 ganancia[S7] NS         80000         80000             =     -0.352417
    33 ganancia[S8] NS         80000         80000             =          -0.5
    34 no_anticipatividad[Acciones,1,S1]
                    NS             0            -0             =     0.0254705
    35 no_anticipatividad[Acciones,1,S2]
                    B              0            -0             = 
    36 no_anticipatividad[Acciones,1,S3]
                    B              0            -0             = 
    37 no_anticipatividad[Acciones,1,S4]
                    B              0            -0             = 
    38 no_anticipatividad[Acciones,1,S5]
                    B              0            -0             = 
    39 no_anticipatividad[Acciones,1,S6]
                    B              0            -0             = 
    40 no_anticipatividad[Acciones,1,S7]
                    B              0            -0             = 
    41 no_anticipatividad[Acciones,1,S8]
                    B              0            -0             = 
    42 no_anticipatividad[Acciones,2,S1]
                    NS             0            -0             =      0.000825
    43 no_anticipatividad[Acciones,2,S2]
                    B              0            -0             = 
    44 no_anticipatividad[Acciones,2,S3]
                    B              0            -0             = 
    45 no_anticipatividad[Acciones,2,S4]
                    B              0            -0             = 
    46 no_anticipatividad[Acciones,2,S5]
                    NS             0            -0             =     0.0537625
    47 no_anticipatividad[Acciones,2,S6]
                    B              0            -0             = 
    48 no_anticipatividad[Acciones,2,S7]
                    B              0            -0             = 
    49 no_anticipatividad[Acciones,2,S8]
                    B              0            -0             = 
    50 no_anticipatividad[Acciones,3,S1]
                    NS             0            -0             =         -0.11
    51 no_anticipatividad[Acciones,3,S2]
                    B              0            -0             = 
    52 no_anticipatividad[Acciones,3,S3]
                    NS             0            -0             =         -0.11
    53 no_anticipatividad[Acciones,3,S4]
                    B              0            -0             = 
    54 no_anticipatividad[Acciones,3,S5]
                    NS             0            -0             =         -0.11
    55 no_anticipatividad[Acciones,3,S6]
                    B              0            -0             = 
    56 no_anticipatividad[Acciones,3,S7]
                    NS             0            -0             =     -0.310127
    57 no_anticipatividad[Acciones,3,S8]
                    B              0            -0             = 
    58 no_anticipatividad[Bonos,1,S1]
                    B              0            -0             = 
    59 no_anticipatividad[Bonos,1,S2]
                    NS             0            -0             =    -0.0250002
    60 no_anticipatividad[Bonos,1,S3]
                    NS             0            -0             =    -0.0284941
    61 no_anticipatividad[Bonos,1,S4]
                    B              0            -0             = 
    62 no_anticipatividad[Bonos,1,S5]
                    NS             0            -0             =    -0.0569954
    63 no_anticipatividad[Bonos,1,S6]
                    NS             0            -0             =    -0.0737107
    64 no_anticipatividad[Bonos,1,S7]
                    NS             0            -0             =    -0.0702467
    65 no_anticipatividad[Bonos,1,S8]
                    NS             0            -0             =    -0.0808686
    66 no_anticipatividad[Bonos,2,S1]
                    B              0            -0             = 
    67 no_anticipatividad[Bonos,2,S2]
                    B              0            -0             = 
    68 no_anticipatividad[Bonos,2,S3]
                    NS             0            -0             =     -0.049275
    69 no_anticipatividad[Bonos,2,S4]
                    NS             0            -0             =       -0.0786
    70 no_anticipatividad[Bonos,2,S5]
                    B              0            -0             = 
    71 no_anticipatividad[Bonos,2,S6]
                    B              0            -0             = 
    72 no_anticipatividad[Bonos,2,S7]
                    NS             0            -0             =     -0.133323
    73 no_anticipatividad[Bonos,2,S8]
                    NS             0            -0             =     -0.153364
    74 no_anticipatividad[Bonos,3,S1]
                    B              0            -0             = 
    75 no_anticipatividad[Bonos,3,S2]
                    B              0            -0             = 
    76 no_anticipatividad[Bonos,3,S3]
                    B              0            -0             = 
    77 no_anticipatividad[Bonos,3,S4]
                    B              0            -0             = 
    78 no_anticipatividad[Bonos,3,S5]
                    B              0            -0             = 
    79 no_anticipatividad[Bonos,3,S6]
                    B              0            -0             = 
    80 no_anticipatividad[Bonos,3,S7]
                    B              0            -0             = 
    81 no_anticipatividad[Bonos,3,S8]
                    B              0            -0             = 

   No. Column name  St   Activity     Lower bound   Upper bound    Marginal
------ ------------ -- ------------- ------------- ------------- -------------
     1 x[Acciones,1,S1]
                    B        41479.3             0               
     2 x[Bonos,1,S1]
                    B        13520.7             0               
     3 x[Acciones,1,S2]
                    B        41479.3             0               
     4 x[Bonos,1,S2]
                    B        13520.7             0               
     5 x[Acciones,1,S3]
                    B        41479.3             0               
     6 x[Bonos,1,S3]
                    B        13520.7             0               
     7 x[Acciones,1,S4]
                    B        41479.3             0               
     8 x[Bonos,1,S4]
                    B        13520.7             0               
     9 x[Acciones,1,S5]
                    B        41479.3             0               
    10 x[Bonos,1,S5]
                    B        13520.7             0               
    11 x[Acciones,1,S6]
                    B        41479.3             0               
    12 x[Bonos,1,S6]
                    B        13520.7             0               
    13 x[Acciones,1,S7]
                    B        41479.3             0               
    14 x[Bonos,1,S7]
                    B        13520.7             0               
    15 x[Acciones,1,S8]
                    B        41479.3             0               
    16 x[Bonos,1,S8]
                    B        13520.7             0               
    17 x[Acciones,2,S1]
                    B        65094.6             0               
    18 x[Bonos,2,S1]
                    B        2168.14             0               
    19 x[Acciones,3,S1]
                    B        83839.9             0               
    20 x[Bonos,3,S1]
                    B              0             0               
    21 x[Acciones,2,S2]
                    B        65094.6             0               
    22 x[Bonos,2,S2]
                    B        2168.14             0               
    23 x[Acciones,3,S2]
                    B        83839.9             0               
    24 x[Bonos,3,S2]
                    NL             0             0                    -0.00625
    25 x[Acciones,2,S3]
                    B        65094.6             0               
    26 x[Bonos,2,S3]
                    B        2168.14             0               
    27 x[Acciones,3,S3]
                    B              0             0               
    28 x[Bonos,3,S3]
                    B        71428.6             0               
    29 x[Acciones,2,S4]
                    B        65094.6             0               
    30 x[Bonos,2,S4]
                    B        2168.14             0               
    31 x[Acciones,3,S4]
                    NL             0             0                 -0.00697545
    32 x[Bonos,3,S4]
                    B        71428.6             0               
    33 x[Acciones,2,S5]
                    B        36743.2             0               
    34 x[Bonos,2,S5]
                    B          22368             0               
    35 x[Acciones,3,S5]
                    B              0             0               
    36 x[Bonos,3,S5]
                    B        71428.6             0               
    37 x[Acciones,2,S6]
                    B        36743.2             0               
    38 x[Bonos,2,S6]
                    B          22368             0               
    39 x[Acciones,3,S6]
                    NL             0             0                 -0.00697545
    40 x[Bonos,3,S6]
                    B        71428.6             0               
    41 x[Acciones,2,S7]
                    B        36743.2             0               
    42 x[Bonos,2,S7]
                    B          22368             0               
    43 x[Acciones,3,S7]
                    B          64000             0               
    44 x[Bonos,3,S7]
                    B              0             0               
    45 x[Acciones,2,S8]
                    B        36743.2             0               
    46 x[Bonos,2,S8]
                    B          22368             0               
    47 x[Acciones,3,S8]
                    B          64000             0               
    48 x[Bonos,3,S8]
                    NL             0             0                 -0.00876583
    49 w[S1]        NL             0             0                      -0.375
    50 w[S2]        NL             0             0                      -0.375
    51 w[S3]        NL             0             0                      -0.375
    52 w[S4]        NL             0             0                   -0.154576
    53 w[S5]        NL             0             0                      -0.375
    54 w[S6]        NL             0             0                   -0.154576
    55 w[S7]        NL             0             0                   -0.147583
    56 w[S8]        B          12160             0               
    57 y[S1]        B        24799.9             0               
    58 y[S2]        B         8870.3             0               
    59 y[S3]        B        1428.57             0               
    60 y[S4]        NL             0             0                   -0.220424
    61 y[S5]        B        1428.57             0               
    62 y[S6]        NL             0             0                   -0.220424
    63 y[S7]        NL             0             0                   -0.227417
    64 y[S8]        NL             0             0                      -0.375

Karush-Kuhn-Tucker optimality conditions:

KKT.PE: max.abs.err. = 7.28e-011 on row 17
        max.rel.err. = 7.28e-011 on row 17
        High quality

KKT.PB: max.abs.err. = 1.02e-011 on row 76
        max.rel.err. = 1.02e-011 on row 76
        High quality

KKT.DE: max.abs.err. = 9.34e-016 on column 37
        max.rel.err. = 9.34e-016 on column 37
        High quality

KKT.DB: max.abs.err. = 0.00e+000 on row 0
        max.rel.err. = 0.00e+000 on row 0
        High quality

End of output
